StringID	Type	x	y	Delivery	Pickup	ReadyTime	DueDate	ServiceTime
D0	d	40.0	50.0	0.0	0.0	0.0	240.0	0.0
S0	f	40.0	50.0	0.0	0.0	0.0	240.0	0.0
S1	f	77.0	52.0	0.0	0.0	0.0	240.0	0.0
S15	f	39.0	26.0	0.0	0.0	0.0	240.0	0.0
S19	f	77.0	30.0	0.0	0.0	0.0	240.0	0.0
C70	c	35.0	69.0	11.0	12.0	83.0	113.0	10.0
C57	c	30.0	25.0	19.0	4.0	27.0	57.0	10.0
C49	c	42.0	12.0	2.0	8.0	85.0	115.0	10.0
C45	c	20.0	82.0	2.0	8.0	53.0	83.0	10.0
C54	c	55.0	60.0	14.0	2.0	170.0	200.0	10.0
C92	c	53.0	43.0	11.0	3.0	140.0	170.0	10.0
C26	c	95.0	30.0	9.0	21.0	121.0	151.0	10.0
C11	c	8.0	40.0	8.0	32.0	86.0	116.0	10.0
C53	c	20.0	50.0	2.0	3.0	0.0	210.0	10.0
C44	c	55.0	82.0	6.0	4.0	36.0	66.0	10.0

Q Vehicle fuel tank capacity /77.75/
C Vehicle load capacity /200.0/
r fuel consumption rate /1.0/
g inverse refueling rate /0.39/
v average Velocity /1.0/
